51
3	9	12	13	15	16	19	23	25	27	29	34	39	40	43	45	47	48	50	51	0
3	4	9	15	16	17	18	21	22	23	25	30	31	34	39	40	41	42	45	48	49	0
1	2	4	8	18	19	22	23	24	26	28	30	31	33	36	38	40	46	48	50	0
2	3	6	7	8	11	13	18	20	22	23	24	26	27	34	37	39	45	48	0
11	14	20	23	24	25	27	31	33	36	37	40	42	43	45	46	48	51	0
4	7	10	12	14	15	18	20	21	22	23	25	26	30	31	32	37	39	40	42	44	48	0
4	6	8	9	11	12	14	17	18	20	23	25	27	30	33	36	41	43	46	47	49	51	0
3	4	7	9	10	16	17	22	29	30	33	34	36	39	40	41	43	46	49	0
1	2	7	8	10	13	15	17	20	21	23	24	31	33	34	36	37	38	39	42	43	44	46	49	0
6	8	9	12	16	26	28	31	33	34	35	37	38	41	42	44	45	48	51	0
4	5	7	13	17	38	39	42	43	47	48	50	51	0
1	6	7	10	15	18	24	26	28	31	37	38	39	43	45	46	49	50	0
1	4	9	11	14	15	22	26	30	33	34	37	39	44	0
5	6	7	13	19	21	23	31	32	34	38	41	42	46	0
1	2	6	9	12	13	16	19	21	26	30	31	32	33	36	38	41	42	51	0
1	2	8	10	15	17	18	23	24	25	26	29	30	31	36	42	44	45	46	49	50	0
2	7	8	9	11	16	19	20	21	22	24	25	32	34	35	38	41	43	46	47	48	0
2	3	4	6	7	12	16	19	22	25	26	30	35	37	38	41	42	43	46	47	48	49	51	0
1	3	14	15	17	18	20	21	23	25	26	27	28	29	31	37	42	43	45	46	48	50	51	0
4	5	6	7	9	17	19	27	28	30	36	37	38	44	45	50	0
2	6	9	14	15	17	19	22	25	27	31	32	33	39	42	44	45	49	50	0
2	3	4	6	8	13	17	18	21	24	28	30	31	34	35	38	39	40	41	44	45	46	47	48	49	0
1	2	3	4	5	6	7	9	14	16	19	26	28	30	36	37	38	42	44	45	46	48	0
3	4	5	9	12	16	17	22	26	27	29	32	33	37	41	43	47	48	0
1	2	5	6	7	16	17	18	19	21	30	32	34	35	40	41	42	43	44	45	48	49	50	0
3	4	6	10	12	13	15	16	18	19	23	24	28	30	33	34	35	37	39	40	43	46	50	0
1	4	5	7	19	20	21	24	28	36	37	39	44	46	47	49	50	0
3	10	12	19	20	22	23	26	27	33	34	35	37	41	42	44	45	49	0
1	8	16	19	24	30	34	37	39	46	47	50	51	0
2	3	6	7	8	13	15	16	18	20	22	23	25	26	29	31	32	36	39	40	41	45	49	51	0
2	3	5	6	9	10	12	14	15	16	19	21	22	30	34	37	40	41	42	48	49	50	0
6	14	15	17	21	24	25	30	34	35	39	41	43	45	46	47	50	0
3	5	7	8	9	10	13	15	21	24	26	28	38	39	41	42	46	47	48	51	0
1	2	4	8	9	10	13	14	17	22	25	26	28	29	31	32	35	37	38	40	41	43	45	46	49	50	51	0
10	17	18	22	25	26	28	32	34	38	40	41	42	51	0
3	5	7	8	9	15	16	20	23	27	30	37	39	42	47	48	49	50	51	0
4	5	6	9	10	12	13	18	19	20	23	24	26	27	28	29	31	34	36	38	42	43	44	47	48	0
3	9	10	11	12	14	15	17	18	20	22	23	33	34	35	37	40	41	42	46	48	0
1	2	4	6	8	9	11	12	13	21	22	26	27	29	30	32	33	36	40	45	46	47	48	49	50	0
1	2	3	5	6	8	22	25	26	30	31	34	35	38	39	42	43	44	46	47	48	0
2	7	8	10	14	15	17	18	22	24	25	28	30	31	32	33	34	35	38	44	48	0
2	5	6	9	10	11	14	15	16	18	19	21	23	25	28	31	33	35	36	37	38	40	43	44	46	49	0
1	5	7	8	9	11	12	17	18	19	24	25	26	32	34	37	40	42	45	50	51	0
6	9	10	13	16	20	21	22	23	25	27	28	37	40	41	42	50	0
1	2	4	5	10	12	16	19	20	21	22	23	25	28	30	32	34	39	43	50	0
3	5	7	8	9	12	14	16	17	18	19	22	23	26	27	29	32	33	34	38	39	40	42	50	51	0
1	7	11	17	18	22	24	27	29	32	33	36	37	39	40	48	49	51	0
1	2	3	4	5	6	10	11	17	18	19	22	23	24	25	31	33	36	37	38	39	40	41	47	49	0
2	7	8	9	12	16	18	21	22	25	27	28	30	31	34	36	39	42	47	48	50	51	0
1	3	11	12	16	19	20	21	25	26	27	29	31	32	34	36	39	43	44	45	46	49	0
1	5	7	10	11	15	18	19	29	30	33	34	35	36	43	46	47	49	0


comments:
random graph
nodes 51
edges 517
